param DIST : 1 2 3 4 5 6 7 8 9 10 :=
1  0   8  39  37  50  61  58  59  62  81
2  8   0  45  47  49  62  60  60  66  81
3  39  45   0   9  21  21  16  15  20  40
4  37  47   9   0  15  20  17  20  25  44
5  50  49  21  15   0  17  18  26  31  50
6  61  62  21  20  17   0   6  17  22  41
7  58  60  16  17  18   6   0  10  15  35
8  59  60  15  20  26  17  10   0   5  24
9  62  66  20  25  31  22  15   5   0  20
10  81  81  40  44  50  41  35  24  20  0;
